\ This file has been generated by DOcplex
\ ENCODING=ISO-8859-1
\Problem name: masterprob

Minimize
 obj: x_3_0 + x_3_1 + x_3_2 + x_3_3 + x_3_4 + x_5_0 + x_5_1 + x_5_2 + x_5_3
      + x_5_4 + x_7_0 + x_7_1 + x_7_2 + x_7_3 + x_7_4 + x_9_0 + x_9_1 + x_9_2
      + x_9_3 + x_9_4 + x_12_0 + x_12_1 + x_12_2 + x_12_3 + x_12_4 + x_13_0
      + x_13_1 + x_13_2 + x_13_3 + x_13_4 + x_15_0 + x_15_1 + x_15_2 + x_15_3
      + x_15_4 + x_18_0 + x_18_1 + x_18_2 + x_18_3 + x_18_4 + x_19_0 + x_19_1
      + x_19_2 + x_19_3 + x_19_4 + 500 y_0 + 500 y_1 + 500 y_3 + 500 y_4
      + 500 y_5 + 500 y_6 + 500 y_7 + 500 y_8 + 500 y_9 + 500 y_13 + 500 y_12
      + 500 y_14 + 500 y_15 + 500 y_16 + 500 y_18 + 500 y_19 + 500 y_20
Subject To
 c1: x_3_0 + x_3_1 + x_3_2 + x_3_3 + y_3 = 1
 c2: x_5_1 + x_5_3 + x_5_4 + y_4 = 1
 c3: x_5_0 + x_5_1 + x_5_2 + x_5_3 + x_5_4 + y_5 = 1
 c4: x_5_2 + x_5_3 + x_5_4 + y_6 = 1
 c5: x_7_0 + y_7 = 1
 c6: y_9 = 1
 c7: x_3_1 + x_12_0 + y_12 = 1
 c8: x_13_0 + y_13 = 1
 c9: y_14 = 1
 c10: x_15_0 + y_15 = 1
 c11: x_3_2 + y_16 = 1
 c12: x_3_3 + x_18_0 + y_18 = 1
 c13: x_3_0 + x_3_1 + x_3_2 + x_3_3 <= 1
 c14: x_5_0 + x_5_1 + x_5_2 + x_5_3 + x_5_4 <= 1
 c15: x_7_0 <= 1
 c16: <= 1
 c17: x_12_0 <= 1
 c18: x_13_0 <= 1
 c19: x_15_0 <= 1
 c20: x_18_0 <= 1
 c21: <= 1

Bounds
 0 <= x_3_0 <= 1
 0 <= x_3_1 <= 1
 0 <= x_3_2 <= 1
 0 <= x_3_3 <= 1
 0 <= x_3_4 <= 1
 0 <= x_5_0 <= 1
 0 <= x_5_1 <= 1
 0 <= x_5_2 <= 1
 0 <= x_5_3 <= 1
 0 <= x_5_4 <= 1
 0 <= x_7_0 <= 1
 0 <= x_7_1 <= 1
 0 <= x_7_2 <= 1
 0 <= x_7_3 <= 1
 0 <= x_7_4 <= 1
 0 <= x_9_0 <= 1
 0 <= x_9_1 <= 1
 0 <= x_9_2 <= 1
 0 <= x_9_3 <= 1
 0 <= x_9_4 <= 1
 0 <= x_12_0 <= 1
 0 <= x_12_1 <= 1
 0 <= x_12_2 <= 1
 0 <= x_12_3 <= 1
 0 <= x_12_4 <= 1
 0 <= x_13_0 <= 1
 0 <= x_13_1 <= 1
 0 <= x_13_2 <= 1
 0 <= x_13_3 <= 1
 0 <= x_13_4 <= 1
 0 <= x_15_0 <= 1
 0 <= x_15_1 <= 1
 0 <= x_15_2 <= 1
 0 <= x_15_3 <= 1
 0 <= x_15_4 <= 1
 0 <= x_18_0 <= 1
 0 <= x_18_1 <= 1
 0 <= x_18_2 <= 1
 0 <= x_18_3 <= 1
 0 <= x_18_4 <= 1
 0 <= x_19_0 <= 1
 0 <= x_19_1 <= 1
 0 <= x_19_2 <= 1
 0 <= x_19_3 <= 1
 0 <= x_19_4 <= 1
 0 <= y_0 <= 1
 0 <= y_1 <= 1
 0 <= y_3 <= 1
 0 <= y_4 <= 1
 0 <= y_5 <= 1
 0 <= y_6 <= 1
 0 <= y_7 <= 1
 0 <= y_8 <= 1
 0 <= y_9 <= 1
 0 <= y_13 <= 1
 0 <= y_12 <= 1
 0 <= y_14 <= 1
 0 <= y_15 <= 1
 0 <= y_16 <= 1
 0 <= y_18 <= 1
 0 <= y_19 <= 1
 0 <= y_20 <= 1

Binaries
 x_3_0 x_3_1 x_3_2 x_3_3 x_3_4 x_5_0 x_5_1 x_5_2 x_5_3 x_5_4 x_7_0 x_7_1 x_7_2
 x_7_3 x_7_4 x_9_0 x_9_1 x_9_2 x_9_3 x_9_4 x_12_0 x_12_1 x_12_2 x_12_3 x_12_4
 x_13_0 x_13_1 x_13_2 x_13_3 x_13_4 x_15_0 x_15_1 x_15_2 x_15_3 x_15_4 x_18_0
 x_18_1 x_18_2 x_18_3 x_18_4 x_19_0 x_19_1 x_19_2 x_19_3 x_19_4 y_0 y_1 y_3 y_4
 y_5 y_6 y_7 y_8 y_9 y_13 y_12 y_14 y_15 y_16 y_18 y_19 y_20
End
